SAT
-1 -75 74 -47 24 29 15 61 -43 23 -6 -31 22 54 -26 -73 42 -4 46 52 -64 -48 -27 39 68 -55 36 21 -19 16 -71 -32 5 56 30 -45 17 14 35 18 -2 7 72 10 -40 37 57 -8 28 69 53 -70 9 38 59 58 -49 -33 -44 63 -25 65 -20 13 -51 -11 -66 3 -67 41 50 62 12 60 34 0
